Maximize
  0.0057943275153658 Z_324_4_0 + 0.00868142764754959 Z_324_4_1
   + 0.0676673038288028 Z_324_4_2 + 0.0251087232113674 Z_324_4_3
   + 0.7927482177969144 Z_324_4_4 + 0.00666220300539339 Z_324_3_0
   + 0.0126730624619329 Z_324_3_1 + 0.00128093332124063 Z_324_3_2
   + 0.5414094264890271 Z_324_3_3 + 0.337974374722406 Z_324_3_4
   + 0.00209230259074004 Z_324_1_0 + 0.00422008931256874 Z_324_1_1
   + 0.0022942902849123 Z_324_1_2 + 0.0241953343638143 Z_324_1_3
   + 0.8671979834479646 Z_324_1_4 + 5.3975868761694569e-04 Z_324_0_0
   + 3.0457226694245232e-04 Z_324_0_1 + 0.00741289950004186 Z_324_0_2
   + 0.00858455341903745 Z_324_0_3 + 0.8831582161263614 Z_324_0_4
   + 0.00666220300539339 Z_324_5_0 + 0.0126730624619329 Z_324_5_1
   + 0.00128093332124063 Z_324_5_2 + 0.5414094264890271 Z_324_5_3
   + 0.337974374722406 Z_324_5_4 + 0.00304742582424479 Z_324_2_0
   + 0.0782495801247749 Z_324_2_1 + 0.0138245837349933 Z_324_2_2
   + 0.0667531929406429 Z_324_2_3 + 0.7381252173753442 Z_324_2_4
   + 0.2406459128479993 Z_326_0_0 + 0.5602621597287023 Z_326_0_1
   + 0.0026308332064952 Z_326_0_2 + 2.2630256822544608e-04 Z_326_0_3
   + 0.0962347916485776 Z_326_0_4 + 0.0134106898781167 Z_52_0_0
   + 0.534215455117692 Z_52_0_1 + 0.0109600350725741 Z_52_0_2
   + 2.3043222036163606e-04 Z_52_0_3 + 0.3411833877112555 Z_52_0_4 + [
   0.0720081070749125 Z_324_3_0 * Z_326_0_0
   + 5.68753e-05 Z_324_3_0 * Z_52_0_0
   + 0.0720081070749125 Z_324_3_1 * Z_326_0_1
   + 5.68753e-05 Z_324_3_1 * Z_52_0_1
   + 0.0720081070749125 Z_324_3_2 * Z_326_0_2
   + 5.68753e-05 Z_324_3_2 * Z_52_0_2
   + 0.0720081070749125 Z_324_3_3 * Z_326_0_3
   + 5.68753e-05 Z_324_3_3 * Z_52_0_3
   + 0.0720081070749125 Z_324_3_4 * Z_326_0_4
   + 5.68753e-05 Z_324_3_4 * Z_52_0_4
   + 0.0720081070749125 Z_324_1_0 * Z_326_0_0
   + 0.0720081070749125 Z_324_1_1 * Z_326_0_1
   + 0.0720081070749125 Z_324_1_2 * Z_326_0_2
   + 0.0720081070749125 Z_324_1_3 * Z_326_0_3
   + 0.0720081070749125 Z_324_1_4 * Z_326_0_4
   + 0.0625544664206384 Z_324_5_0 * Z_326_0_0
   + 5.68753e-05 Z_324_5_0 * Z_52_0_0
   + 0.0625544664206384 Z_324_5_1 * Z_326_0_1
   + 5.68753e-05 Z_324_5_1 * Z_52_0_1
   + 0.0625544664206384 Z_324_5_2 * Z_326_0_2
   + 5.68753e-05 Z_324_5_2 * Z_52_0_2
   + 0.0625544664206384 Z_324_5_3 * Z_326_0_3
   + 5.68753e-05 Z_324_5_3 * Z_52_0_3
   + 0.0625544664206384 Z_324_5_4 * Z_326_0_4
   + 5.68753e-05 Z_324_5_4 * Z_52_0_4
   + 0.00727453085201506 Z_324_2_0 * Z_326_0_0
   + 0.00727453085201506 Z_324_2_1 * Z_326_0_1
   + 0.00727453085201506 Z_324_2_2 * Z_326_0_2
   + 0.00727453085201506 Z_324_2_3 * Z_326_0_3
   + 0.00727453085201506 Z_324_2_4 * Z_326_0_4
   + 0.0599721018062886 Z_326_0_0 * Z_52_0_0
   + 0.0599721018062886 Z_326_0_1 * Z_52_0_1
   + 0.0599721018062886 Z_326_0_2 * Z_52_0_2
   + 0.0599721018062886 Z_326_0_3 * Z_52_0_3
   + 0.0599721018062886 Z_326_0_4 * Z_52_0_4 ] / 2 
Subject To
 constraint1_3244: Z_324_4_0 + Z_324_4_1 + Z_324_4_2 + Z_324_4_3
   + Z_324_4_4 <= 1
 constraint1_3243: Z_324_3_0 + Z_324_3_1 + Z_324_3_2 + Z_324_3_3
   + Z_324_3_4 <= 1
 constraint1_3241: Z_324_1_0 + Z_324_1_1 + Z_324_1_2 + Z_324_1_3
   + Z_324_1_4 <= 1
 constraint1_3240: Z_324_0_0 + Z_324_0_1 + Z_324_0_2 + Z_324_0_3
   + Z_324_0_4 <= 1
 constraint1_3245: Z_324_5_0 + Z_324_5_1 + Z_324_5_2 + Z_324_5_3
   + Z_324_5_4 <= 1
 constraint1_3242: Z_324_2_0 + Z_324_2_1 + Z_324_2_2 + Z_324_2_3
   + Z_324_2_4 <= 1
 constraint1_3260: Z_326_0_0 + Z_326_0_1 + Z_326_0_2 + Z_326_0_3
   + Z_326_0_4 <= 1
 constraint1_520: Z_52_0_0 + Z_52_0_1 + Z_52_0_2 + Z_52_0_3 + Z_52_0_4
   <= 1
 constraint2_3240: Z_324_4_0 + Z_324_3_0 + Z_324_1_0 + Z_324_0_0
   + Z_324_5_0 + Z_324_2_0 <= 1
 constraint2_3241: Z_324_4_1 + Z_324_3_1 + Z_324_1_1 + Z_324_0_1
   + Z_324_5_1 + Z_324_2_1 <= 1
 constraint2_3242: Z_324_4_2 + Z_324_3_2 + Z_324_1_2 + Z_324_0_2
   + Z_324_5_2 + Z_324_2_2 <= 1
 constraint2_3243: Z_324_4_3 + Z_324_3_3 + Z_324_1_3 + Z_324_0_3
   + Z_324_5_3 + Z_324_2_3 <= 1
 constraint2_4210: <= 1
 constraint2_4211: <= 1
 constraint2_4212: <= 1
 constraint2_4213: <= 1
 constraint2_6230: <= 1
 constraint2_6231: <= 1
 constraint2_6232: <= 1
 constraint2_6233: <= 1
 constraint2_3260: Z_326_0_0 <= 1
 constraint2_3261: Z_326_0_1 <= 1
 constraint2_3262: Z_326_0_2 <= 1
 constraint2_3263: Z_326_0_3 <= 1
 constraint2_520: Z_52_0_0 <= 1
 constraint2_521: Z_52_0_1 <= 1
 constraint2_522: Z_52_0_2 <= 1
 constraint2_523: Z_52_0_3 <= 1
Bounds
Binaries
 Z_324_4_0 Z_324_4_1 Z_324_4_2 Z_324_4_3 Z_324_4_4 Z_324_3_0 Z_324_3_1
 Z_324_3_2 Z_324_3_3 Z_324_3_4 Z_324_1_0 Z_324_1_1 Z_324_1_2 Z_324_1_3
 Z_324_1_4 Z_324_0_0 Z_324_0_1 Z_324_0_2 Z_324_0_3 Z_324_0_4 Z_324_5_0
 Z_324_5_1 Z_324_5_2 Z_324_5_3 Z_324_5_4 Z_324_2_0 Z_324_2_1 Z_324_2_2
 Z_324_2_3 Z_324_2_4 Z_326_0_0 Z_326_0_1 Z_326_0_2 Z_326_0_3 Z_326_0_4
 Z_52_0_0 Z_52_0_1 Z_52_0_2 Z_52_0_3 Z_52_0_4
End
